(declare-fun |id#2@1| () (_ BitVec 32))
(declare-fun |id#0@1| () (_ BitVec 32))
(define-fun .8 () (_ BitVec 32) (_ bv0 32))
(define-fun .10 () (_ BitVec 32) (_ bv10 32))
(define-fun .13 () (_ BitVec 32) (_ bv1 32))
(define-fun .15 () (_ BitVec 32) (_ bv11 32))
(define-fun .20 () (_ BitVec 32) |id#2@1|)
(define-fun .22 () Bool (bvslt .10 .20))
(define-fun .23 () Bool (not .22))
(define-fun .29 () (_ BitVec 1) (_ bv1 1))
(define-fun .30 () (_ BitVec 1) ((_ extract 31 31) .20))
(define-fun .31 () Bool (= .30 .29))
(define-fun .52 () Bool (not .31))
(define-fun .55 () (_ BitVec 32) |id#0@1|)
(define-fun .56 () Bool (bvslt .10 .55))
(define-fun .62 () Bool (not .56))
(define-fun .64 () Bool (= .55 .8))
(define-fun .65 () Bool (not .64))
(define-fun .68 () (_ BitVec 1) ((_ extract 31 31) .55))
(define-fun .69 () Bool (= .68 .29))
(define-fun .89 () Bool (not .69))
(define-fun .92 () Bool (= .20 .55))
(define-fun .119 () (_ BitVec 32) (bvadd .13 .20))
(define-fun .121 () Bool (= .20 .10))
(define-fun .131 () Bool (not .121))
(define-fun .152 () (_ BitVec 32) (_ bv4294967295 32))
(define-fun .154 () (_ BitVec 32) (bvadd .152 .55))
(define-fun .180 () Bool (bvslt .119 .15))
(define-fun .240 () Bool (bvslt .8 .119))
(define-fun .297 () Bool (and .65 .180))
(define-fun .337 () Bool (bvslt .152 .154))
(define-fun .339 () Bool (and .297 .337))
(define-fun .340 () Bool (and .89 .339))
(define-fun .341 () Bool (and .52 .340))
(define-fun .342 () Bool (and .62 .341))
(define-fun .366 () Bool (and .92 .342))
(define-fun .367 () Bool (and .131 .366))
(define-fun .368 () Bool (and .240 .367))
(define-fun .369 () Bool (and .23 .368))
(assert .369)
(declare-fun __A () Bool)
(define-fun .9 () Bool __A)
(define-fun .18 () Bool (not .9))
(define-fun .112 () (_ BitVec 32) (_ bv2 32))
(define-fun .291 () Bool (= .20 .112))
(define-fun .294 () Bool (not .291))
(define-fun .295 () Bool (or .18 .294))
(assert .295)
(define-fun .137 () Bool (= .55 .112))
(define-fun .138 () Bool (not .137))
(define-fun .139 () Bool (or .18 .138))
(assert .139)
(check-sat)
(get-model)
